Running for instance ./models/c109.txt
Generating routes...
Execution time:  2.793496  seconds
Academic license - for non-commercial use only
Warning: constraint name "Cliente esta na rota x1" has a space
Optimize a model with 26 rows, 10000 columns and 65340 nonzeros
Variable types: 0 continuous, 10000 integer (0 binary)
Coefficient statistics:
  Matrix range     [1e+00, 1e+00]
  Objective range  [2e+01, 2e+02]
  Bounds range     [1e+00, 1e+00]
  RHS range        [1e+00, 2e+01]
Found heuristic solution: objective 546.4801295
Presolve removed 1 rows and 2947 columns
Presolve time: 0.06s
Presolved: 25 rows, 7053 columns, 41217 nonzeros
Found heuristic solution: objective 436.0601042
Variable types: 0 continuous, 7053 integer (7053 binary)

Root relaxation: objective 2.459352e+02, 115 iterations, 0.01 seconds

    Nodes    |    Current Node    |     Objective Bounds      |     Work
 Expl Unexpl |  Obj  Depth IntInf | Incumbent    BestBd   Gap | It/Node Time

     0     0  245.93520    0   16  436.06010  245.93520  43.6%     -    0s
H    0     0                     275.9543662  245.93520  10.9%     -    0s
     0     0  245.93520    0   16  275.95437  245.93520  10.9%     -    0s
     0     0  248.24237    0   15  275.95437  248.24237  10.0%     -    0s
H    0     0                     274.0173167  248.24237  9.41%     -    0s
     0     0  248.24237    0   15  274.01732  248.24237  9.41%     -    0s
     0     0  248.24237    0   15  274.01732  248.24237  9.41%     -    0s
     0     0  248.24237    0   15  274.01732  248.24237  9.41%     -    0s
     0     2  248.24237    0   15  274.01732  248.24237  9.41%     -    0s
*   12     5               4     265.6463414  256.82030  3.32%   9.0    0s
*   40     0              15     264.9860565  264.98606  0.00%   6.5    0s

Explored 41 nodes (522 simplex iterations) in 0.31 seconds
Thread count was 8 (of 8 available processors)

Solution count 5: 264.986 265.646 274.017 ... 436.06

Optimal solution found (tolerance 1.00e-04)
Best objective 2.649860565264e+02, best bound 2.649860565264e+02, gap 0.0000%

Routes:
5 3 1 2 22 21
25 24 20
13 17 18 15 19 12 16 14
7 8 10 11 9 4 6 23

Distance: 264.986056526
Execution time:  3.984005  seconds
